\* Problem: Unknown *\

Maximize
 obj: + xp_0_0 + xp_0_1 + xp_1_0 + xp_2_0 + xp_2_1 + xp_3_0 + xp_3_1
 + xp_4_0 + xp_5_0 + xp_5_1 + xp_6_0 + xp_6_1 + xp_7_0 + xp_8_0 + xp_9_0
 + xp_10_0 + xp_10_1 + xp_10_2 + xp_11_0 + xp_12_0 + xp_12_1 + xp_12_2
 + xp_13_0 + xp_14_0 + xp_15_0 + xp_15_1 + xp_16_0 + xp_17_0 + xp_17_1
 + xp_18_0 + xp_18_1 + xp_19_0 + xp_20_0 + xp_21_0 + xp_21_1 + xp_21_2
 + xp_22_0 + xp_22_1 + xp_22_2 + xp_22_3 + xp_23_0 + xp_24_0 + xp_24_1
 + xp_25_0 + xp_26_0 + xp_27_0 + xp_28_0 + xp_28_1 + xp_29_0 + xp_29_1
 + xp_30_0 + xp_31_0 + xp_31_1 + xp_32_0 + xp_33_0 + xp_34_0 + xp_35_0
 + xp_36_0 + xp_37_0 + xp_38_0 + xp_38_1 + xp_39_0 + xp_40_0 + xp_40_1
 + xp_41_0 + xp_42_0 + xp_42_1 + xp_43_0 + xp_44_0 + xp_45_0 + xp_46_0
 + xp_47_0 + xp_48_0 + xp_48_1 + xp_49_0 + xp_50_0 + xp_51_0 + xp_52_0
 + xp_52_1 + xp_53_0 + xp_54_0 + xp_55_0 + xp_56_0 + xp_57_0 + xp_58_0
 + xp_58_1 + xp_59_0 + xp_60_0 + xp_60_1 + xp_60_2 + xp_61_0 + xp_61_1
 + xp_62_0 + xp_63_0 + xp_63_1 + xp_64_0 + xp_65_0

Subject To
 r_1: + xp_60_1 + xp_53_0 + xp_51_0 + xp_40_1 + xp_40_0 + xp_35_0
 + xp_33_0 <= 153.637538779731
 r_2: + xp_63_1 + xp_58_1 + xp_15_1 <= 153.637538779731
 r_3: + xp_56_0 + xp_21_0 + xp_12_0 <= 153.637538779731
 r_4: + xp_65_0 + xp_50_0 + xp_45_0 + xp_24_1 + xp_24_0 + xp_15_0
 + xp_12_2 + xp_10_1 + xp_10_0 + xp_5_1 + xp_5_0 + xp_2_1
 <= 140.385468663339
 r_5: + xp_38_1 + xp_31_1 + xp_17_0 + xp_14_0 <= 140.385468663339
 r_6: + xp_52_1 + xp_22_3 + xp_22_2 + xp_22_0 + xp_21_1 + xp_13_0
 + xp_12_1 + xp_10_2 + xp_3_0 + xp_2_0 <= 148.340353833193
 r_7: + xp_60_2 + xp_48_1 + xp_46_0 + xp_42_1 + xp_42_0 + xp_0_0
 <= 152.393669634026
 r_8: 0 xp_0_0 <= 149.23665791776
 r_9: + xp_64_0 + xp_63_1 + xp_29_1 + xp_25_0 + xp_21_0 + xp_6_0
 <= 153.637538779731
 r_10: + xp_63_0 <= 149.23665791776
 r_11: + xp_61_1 + xp_60_0 + xp_38_0 + xp_31_0 <= 155
 r_12: + xp_62_0 + xp_61_0 + xp_60_2 + xp_60_1 + xp_22_1 + xp_21_2
 + xp_3_1 <= 148.340353833193
 r_13: + xp_64_0 + xp_63_1 + xp_59_0 + xp_58_1 + xp_56_0 + xp_29_1
 + xp_29_0 + xp_21_0 + xp_20_0 + xp_15_1 + xp_12_0 <= 153.637538779731
 r_14: + xp_60_1 + xp_57_0 + xp_53_0 + xp_42_1 + xp_35_0 + xp_18_0
 <= 153.637538779731
 r_15: + xp_58_0 <= 152.393669634026
 r_16: + xp_65_0 + xp_55_0 + xp_53_0 + xp_51_0 + xp_50_0 + xp_40_1
 + xp_10_1 + xp_10_0 <= 153.637538779731
 r_17: + xp_63_1 + xp_58_1 + xp_54_0 + xp_52_1 + xp_36_0 + xp_31_1
 <= 140.385468663339
 r_18: + xp_52_0 + xp_12_2 + xp_2_1 <= 155
 r_19: + xp_60_0 + xp_48_0 <= 149.23665791776
 r_20: + xp_61_1 + xp_50_0 + xp_49_0 + xp_48_1 + xp_46_0 + xp_45_0
 + xp_22_2 + xp_10_1 + xp_5_1 <= 140.385468663339
 r_21: + xp_47_0 + xp_26_0 + xp_22_1 + xp_21_2 + xp_17_1 + xp_17_0
 + xp_7_0 + xp_3_1 <= 155
 r_22: + xp_61_0 + xp_60_2 + xp_43_0 + xp_42_1 + xp_42_0 + xp_38_1
 <= 148.340353833193
 r_23: + xp_56_0 + xp_52_1 + xp_52_0 + xp_41_0 + xp_38_0 + xp_34_0
 + xp_31_0 <= 148.340353833193
 r_24: + xp_62_0 + xp_60_1 + xp_44_0 + xp_40_1 + xp_40_0 + xp_39_0
 + xp_21_2 + xp_21_1 + xp_12_1 + xp_10_2 + xp_2_0 <= 148.340353833193
 r_25: + xp_62_0 + xp_60_1 + xp_44_0 + xp_40_0 + xp_37_0 + xp_35_0
 + xp_33_0 + xp_10_2 <= 153.637538779731
 r_26: + xp_40_1 + xp_39_0 + xp_36_0 + xp_32_0 + xp_31_1 <= 155
 r_27: + xp_56_0 + xp_52_0 + xp_34_0 + xp_31_0 + xp_30_0
 <= 148.340353833193
 r_28: + xp_60_2 + xp_60_0 + xp_48_1 + xp_48_0 + xp_42_0 + xp_29_1
 + xp_27_0 + xp_25_0 + xp_21_0 + xp_18_1 + xp_8_0 + xp_6_0
 <= 149.23665791776
 r_29: + xp_29_0 + xp_28_0 + xp_24_1 + xp_22_0 + xp_6_1 + xp_0_1
 <= 152.393669634026
 r_30: + xp_63_0 + xp_28_1 + xp_26_0 + xp_24_0 + xp_23_0 + xp_22_3
 + xp_22_2 + xp_22_1 + xp_21_2 + xp_21_1 + xp_17_1 <= 149.23665791776
 r_31: + xp_58_0 + xp_28_0 + xp_24_1 + xp_22_0 + xp_19_0 + xp_17_0
 + xp_15_0 + xp_14_0 + xp_13_0 + xp_12_2 + xp_12_1 <= 152.393669634026
 r_32: + xp_46_0 + xp_42_1 + xp_29_0 + xp_20_0 + xp_18_0 + xp_16_0
 + xp_15_1 + xp_12_0 + xp_6_1 <= 152.393669634026
 r_33: + xp_60_2 + xp_48_1 + xp_42_0 + xp_18_1 + xp_17_1 + xp_11_0
 <= 152.393669634026
 r_34: + xp_26_0 + xp_23_0 + xp_22_2 + xp_22_1 + xp_21_2 + xp_17_1
 + xp_10_1 + xp_7_0 + xp_5_1 + xp_4_0 + xp_3_1 <= 149.23665791776
 r_35: + xp_60_0 + xp_48_0 + xp_8_0 + xp_6_1 + xp_6_0 + xp_1_0 + xp_0_1
 <= 149.23665791776
 r_36: + xp_63_0 + xp_28_1 + xp_24_0 + xp_22_3 + xp_21_1 + xp_10_2
 + xp_10_0 + xp_9_0 + xp_5_0 + xp_3_0 + xp_2_1 + xp_2_0 + xp_0_0
 <= 149.23665791776

Bounds
 0 <= xp_0_0 <= 4.67300556586271
 0 <= xp_0_1 <= 23.3650278293135
 0 <= xp_1_0 <= 22.7179962894249
 0 <= xp_2_0 <= 16.6790352504638
 0 <= xp_2_1 <= 8.33951762523191
 0 <= xp_3_0 <= 9.68150896722325
 0 <= xp_3_1 <= 4.84075448361163
 0 <= xp_4_0 <= 28.469387755102
 0 <= xp_5_0 <= 18.9316635745207
 0 <= xp_5_1 <= 3.78633271490414
 0 <= xp_6_0 <= 8.72294372294372
 0 <= xp_6_1 <= 17.4458874458874
 0 <= xp_7_0 <= 22.1428571428571
 0 <= xp_8_0 <= 25.1623376623377
 0 <= xp_9_0 <= 17.5417439703154
 0 <= xp_10_0 <= 8.19573283858998
 0 <= xp_10_1 <= 2.73191094619666
 0 <= xp_10_2 <= 5.46382189239332
 0 <= xp_11_0 <= 25.7374768089054
 0 <= xp_12_0 <= 8.41141001855287
 0 <= xp_12_1 <= 5.60760667903525
 0 <= xp_12_2 <= 2.80380333951762
 0 <= xp_13_0 <= 15.0974025974026
 0 <= xp_14_0 <= 22.8617810760668
 0 <= xp_15_0 <= 18.9795918367347
 0 <= xp_15_1 <= 9.48979591836735
 0 <= xp_16_0 <= 27.1753246753247
 0 <= xp_17_0 <= 11.9341372912801
 0 <= xp_17_1 <= 11.9341372912801
 0 <= xp_18_0 <= 10.208719851577
 0 <= xp_18_1 <= 10.208719851577
 0 <= xp_19_0 <= 19.6985157699443
 0 <= xp_20_0 <= 23.4369202226345
 0 <= xp_21_0 <= 6.27860235003092
 0 <= xp_21_1 <= 9.41790352504638
 0 <= xp_21_2 <= 3.13930117501546
 0 <= xp_22_0 <= 3.81029684601113
 0 <= xp_22_1 <= 7.62059369202226
 0 <= xp_22_2 <= 7.62059369202226
 0 <= xp_22_3 <= 3.81029684601113
 0 <= xp_23_0 <= 23.5807050092764
 0 <= xp_24_0 <= 9.20222634508349
 0 <= xp_24_1 <= 9.20222634508349
 0 <= xp_25_0 <= 28.0380333951762
 0 <= xp_26_0 <= 18.6920222634508
 0 <= xp_27_0 <= 15.0974025974026
 0 <= xp_28_0 <= 20.7289734075448
 0 <= xp_28_1 <= 4.14579468150897
 0 <= xp_29_0 <= 15.0494743351886
 0 <= xp_29_1 <= 7.52473716759431
 0 <= xp_30_0 <= 27.8942486085343
 0 <= xp_31_0 <= 2.99551638837353
 0 <= xp_31_1 <= 14.9775819418677
 0 <= xp_32_0 <= 15.8163265306122
 0 <= xp_33_0 <= 18.9795918367347
 0 <= xp_34_0 <= 22.8617810760668
 0 <= xp_35_0 <= 15.6725417439703
 0 <= xp_36_0 <= 18.1168831168831
 0 <= xp_37_0 <= 14.3784786641929
 0 <= xp_38_0 <= 5.94310451453309
 0 <= xp_38_1 <= 11.8862090290662
 0 <= xp_39_0 <= 15.2411873840445
 0 <= xp_40_0 <= 16.295609152752
 0 <= xp_40_1 <= 3.2591218305504
 0 <= xp_41_0 <= 20.7050092764378
 0 <= xp_42_0 <= 8.05194805194805
 0 <= xp_42_1 <= 16.1038961038961
 0 <= xp_43_0 <= 17.1103896103896
 0 <= xp_44_0 <= 18.260667903525
 0 <= xp_45_0 <= 15.0974025974026
 0 <= xp_46_0 <= 21.1363636363636
 0 <= xp_47_0 <= 20.1298701298701
 0 <= xp_48_0 <= 14.234693877551
 0 <= xp_48_1 <= 14.234693877551
 0 <= xp_49_0 <= 14.9536178107607
 0 <= xp_50_0 <= 16.247680890538
 0 <= xp_51_0 <= 24.2996289424861
 0 <= xp_52_0 <= 22.406462585034
 0 <= xp_52_1 <= 4.4812925170068
 0 <= xp_53_0 <= 28.1818181818182
 0 <= xp_54_0 <= 27.7504638218924
 0 <= xp_55_0 <= 21.7115027829314
 0 <= xp_56_0 <= 15.2411873840445
 0 <= xp_57_0 <= 17.9730983302412
 0 <= xp_58_0 <= 18.5961657390229
 0 <= xp_58_1 <= 9.29808286951144
 0 <= xp_59_0 <= 27.8942486085343
 0 <= xp_60_0 <= 5.89517625231911
 0 <= xp_60_1 <= 5.89517625231911
 0 <= xp_60_2 <= 5.89517625231911
 0 <= xp_61_0 <= 21.6875386518244
 0 <= xp_61_1 <= 4.33750773036487
 0 <= xp_62_0 <= 27.7504638218924
 0 <= xp_63_0 <= 21.6875386518244
 0 <= xp_63_1 <= 4.33750773036487
 0 <= xp_64_0 <= 28.0380333951762
 0 <= xp_65_0 <= 20.2736549165121

End
